
Gurobi 10.0.1 (win64) logging started Tue Aug 29 02:53:12 2023

Set parameter LogFile to value "results//log/URT_10_deadline.log"
Gurobi Optimizer version 10.0.1 build v10.0.1rc0 (win64)

CPU model: AMD Ryzen 7 3700X 8-Core Processor, instruction set [SSE2|AVX|AVX2]
Thread count: 8 physical cores, 16 logical processors, using up to 16 threads

Optimize a model with 222 rows, 201 columns and 804 nonzeros
Model fingerprint: 0xc72dec56
Model has 1 quadratic constraint
Variable types: 24 continuous, 177 integer (176 binary)
Coefficient statistics:
  Matrix range     [1e+00, 1e+06]
  QMatrix range    [1e+00, 1e+00]
  QLMatrix range   [1e+00, 1e+01]
  Objective range  [1e+00, 1e+00]
  Bounds range     [1e+00, 1e+00]
  RHS range        [1e+00, 3e+06]
Presolve removed 44 rows and 114 columns
Presolve time: 0.00s
Presolved: 187 rows, 95 columns, 775 nonzeros
Variable types: 32 continuous, 63 integer (62 binary)

Root relaxation: objective 0.000000e+00, 36 iterations, 0.00 seconds (0.00 work units)

    Nodes    |    Current Node    |     Objective Bounds      |     Work
 Expl Unexpl |  Obj  Depth IntInf | Incumbent    BestBd   Gap | It/Node Time

     0     0    0.00000    0    2          -    0.00000      -     -    0s
H    0     0                      76.0000000    0.00000   100%     -    0s
H    0     0                      75.0000000    0.00000   100%     -    0s
H    0     0                      52.0000000    0.00000   100%     -    0s
     0     0    0.00000    0    5   52.00000    0.00000   100%     -    0s
H    0     0                      49.0000000    0.00000   100%     -    0s
     0     0    0.00000    0    7   49.00000    0.00000   100%     -    0s
     0     0    0.00000    0    7   49.00000    0.00000   100%     -    0s
H    0     0                      48.0000000    0.00000   100%     -    0s
H    0     0                      47.0000000    0.00000   100%     -    0s
     0     0    0.00000    0    9   47.00000    0.00000   100%     -    0s
H    0     0                      38.0000000    0.00000   100%     -    0s
     0     0    0.00000    0    4   38.00000    0.00000   100%     -    0s
     0     0    0.00000    0   12   38.00000    0.00000   100%     -    0s
     0     0    0.75665    0   11   38.00000    0.75665  98.0%     -    0s
     0     0    1.00000    0    9   38.00000    1.00000  97.4%     -    0s
     0     0    4.36391    0   11   38.00000    4.36391  88.5%     -    0s
     0     0    5.07351    0   14   38.00000    5.07351  86.6%     -    0s
     0     0    5.07837    0   18   38.00000    5.07837  86.6%     -    0s
     0     0    5.33561    0   15   38.00000    5.33561  86.0%     -    0s
     0     0    5.50228    0   16   38.00000    5.50228  85.5%     -    0s
     0     0    5.50228    0   16   38.00000    5.50228  85.5%     -    0s
     0     0    5.50230    0   17   38.00000    5.50230  85.5%     -    0s
     0     0    5.50230    0   19   38.00000    5.50230  85.5%     -    0s
     0     0    5.83564    0   18   38.00000    5.83564  84.6%     -    0s
     0     0    5.83564    0   10   38.00000    5.83564  84.6%     -    0s
H    0     1                      37.0000000    5.83564  84.2%     -    0s
     0     1    5.83564    0    9   37.00000    5.83564  84.2%     -    0s
H   67    43                      36.0000000    8.00000  77.8%  14.6    0s
H  179    79                      33.0000000    8.00000  75.8%   8.6    0s

Cutting planes:
  Learned: 80
  Gomory: 38
  Cover: 32
  Implied bound: 2
  MIR: 71
  Flow cover: 181
  Inf proof: 1
  Zero half: 2
  RLT: 2
  Relax-and-lift: 3

Explored 20222 nodes (85711 simplex iterations) in 1.98 seconds (0.55 work units)
Thread count was 16 (of 16 available processors)

Solution count 10: 33 33 36 ... 75

Optimal solution found (tolerance 1.00e-04)
Best objective 3.300000000000e+01, best bound 3.300000000000e+01, gap 0.0000%
Warning: constraint name "precedence between 0,2 to 0,0 if x_[j,l,h,z,i]=1" has a space
Warning: constraint name "precedence between 0,2 to 0,0 if x_[j,l,h,z,i]=1" has a space
Warning: default constraint names used to write mps file
